6 16 4 10
11 1 20 17 14 18 4 1 16 1 10 10 5 19 9 13 
0.11 7.41 3.83 1.03 2.24 3.32 5.03 0.49 6.03 2.49 2.56 2.11 6.65 0.82 4.39 7.01 
3.61 7.98 6.61 6.97 0.8 6.96 4.78 7.43 4.6 6.38 7.62 3.38 0.99 5.54 2.46 7.15 
4.84 4.88 7.63 6.87 5.84 0.22 0.63 2.82 1.86 4.1 5.18 1.27 4.8 5.4 7.92 4.71 
2.65 6.12 1.22 4.62 2.74 4.69 4.99 7.98 5.44 1.99 6.41 2.52 1.19 6.67 1.41 6.04 
4 4 4 4 4 4 4 4 4 4 4 4 4 4 4 4 
7.79 2.35 0.6 0.75 0.26 5.91 1.51 5.48 1.03 4.98 7.44 7.32 6.97 0.74 3 7.71 
1 1 1 1 1 1 1 1 1 1 1 1 1 1 1 1 
1 1 1 1 1 1 1 1 1 1 1 1 1 1 1 1 
1 1 1 1 1 1 1 1 1 1 1 1 1 1 1 1 
1 1 1 1 1 1 1 1 1 1 1 1 1 1 1 1 
1 1 1 1 1 1 1 1 1 1 1 1 1 1 1 1 
1 1 1 1 1 1 1 1 1 1 1 1 1 1 1 1 
0.01 0.01 0.01 0.01 0.01 0.01 0.01 0.01 0.01 0.01 0.01 0.01 0.01 0.01 0.01 0.01 
0.02 0.02 0.02 0.02 0.02 0.02 0.02 0.02 0.02 0.02 0.02 0.02 0.02 0.02 0.02 0.02 
0.03 0.03 0.03 0.03 0.03 0.03 0.03 0.03 0.03 0.03 0.03 0.03 0.03 0.03 0.03 0.03 
0.04 0.04 0.04 0.04 0.04 0.04 0.04 0.04 0.04 0.04 0.04 0.04 0.04 0.04 0.04 0.04 
0.05 0.05 0.05 0.05 0.05 0.05 0.05 0.05 0.05 0.05 0.05 0.05 0.05 0.05 0.05 0.05 
1 1 1 1 1 1 1 1 1 1 1 1 1 1 1 1 
